(declare-datatypes () ((Nat2 (Z) (S (p Nat2)))))
(declare-datatypes () ((Nat (Z2) (S2 (q Nat)))))
(declare-datatypes ()
  ((list2 (nil2) (cons2 (head2 Nat) (tail2 list2)))))
(declare-datatypes ()
  ((list (nil) (cons (head list2) (tail list)))))
(declare-fun zcount (Nat list2) Nat2)
(declare-fun risers (list2) list)
(declare-fun lmerge (list2 list2) list2)
(declare-fun pairwise (list) list)
(declare-fun mergingbu2 (list) list2)
(declare-fun msortbu2 (list2) list2)
(declare-fun le (Nat Nat) Bool)
(declare-fun equal (Nat Nat) Bool)
(assert (forall ((x Nat)) (= (zcount x nil2) Z)))
(assert
  (forall ((x Nat) (z Nat) (xs list2))
    (=> (= (equal x z) true)
      (= (zcount x (cons2 z xs)) (S (zcount x xs))))))
(assert
  (forall ((x Nat) (z Nat) (xs list2))
    (=> (= (equal x z) false)
      (= (zcount x (cons2 z xs)) (zcount x xs)))))
(assert (= (risers nil2) nil))
(assert
  (forall ((y Nat))
    (= (risers (cons2 y nil2)) (cons (cons2 y nil2) nil))))
(assert
  (forall ((y Nat) (y2 Nat) (xs list2))
    (=> (= (le y y2) true)
      (=> (= (risers (cons2 y2 xs)) nil)
        (= (risers (cons2 y (cons2 y2 xs))) nil)))))
(assert
  (forall ((y Nat) (y2 Nat) (xs list2) (ys list2) (yss list))
    (=> (= (le y y2) true)
      (=> (= (risers (cons2 y2 xs)) (cons ys yss))
        (= (risers (cons2 y (cons2 y2 xs))) (cons (cons2 y ys) yss))))))
(assert
  (forall ((y Nat) (y2 Nat) (xs list2))
    (=> (= (le y y2) false)
      (= (risers (cons2 y (cons2 y2 xs)))
        (cons (cons2 y nil2) (risers (cons2 y2 xs)))))))
(assert (forall ((y list2)) (= (lmerge nil2 y) y)))
(assert
  (forall ((z Nat) (x2 list2))
    (= (lmerge (cons2 z x2) nil2) (cons2 z x2))))
(assert
  (forall ((z Nat) (x2 list2) (x3 Nat) (x4 list2))
    (=> (= (le z x3) true)
      (= (lmerge (cons2 z x2) (cons2 x3 x4))
        (cons2 z (lmerge x2 (cons2 x3 x4)))))))
(assert
  (forall ((z Nat) (x2 list2) (x3 Nat) (x4 list2))
    (=> (= (le z x3) false)
      (= (lmerge (cons2 z x2) (cons2 x3 x4))
        (cons2 x3 (lmerge (cons2 z x2) x4))))))
(assert (= (pairwise nil) nil))
(assert
  (forall ((xs list2)) (= (pairwise (cons xs nil)) (cons xs nil))))
(assert
  (forall ((xs list2) (ys list2) (xss list))
    (= (pairwise (cons xs (cons ys xss)))
      (cons (lmerge xs ys) (pairwise xss)))))
(assert (= (mergingbu2 nil) nil2))
(assert (forall ((xs list2)) (= (mergingbu2 (cons xs nil)) xs)))
(assert
  (forall ((xs list2) (z list2) (x2 list))
    (= (mergingbu2 (cons xs (cons z x2)))
      (mergingbu2 (pairwise (cons xs (cons z x2)))))))
(assert
  (forall ((x list2)) (= (msortbu2 x) (mergingbu2 (risers x)))))
(assert (forall ((y Nat)) (= (le Z2 y) true)))
(assert (forall ((z Nat)) (= (le (S2 z) Z2) false)))
(assert
  (forall ((z Nat) (x2 Nat)) (= (le (S2 z) (S2 x2)) (le z x2))))
(assert (= (equal Z2 Z2) true))
(assert (forall ((z Nat)) (= (equal Z2 (S2 z)) false)))
(assert (forall ((x2 Nat)) (= (equal (S2 x2) Z2) false)))
(assert
  (forall ((x2 Nat) (y2 Nat))
    (= (equal (S2 x2) (S2 y2)) (equal x2 y2))))
(assert-not
  (forall ((x Nat) (y list2))
    (= (zcount x (msortbu2 y)) (zcount x y))))
(check-sat)
